NAME : problems/30-tsp/instance-46.tsp
COMMENT : No Comment
TYPE : TSP
DIMENSION: 30
EDGE_WEIGHT_TYPE : EUC_2D
NODE_COORD_SECTION
1 8097 5014 
2 3733 6165 
3 4165 2193 
4 8019 5272 
5 2030 8833 
6 7101 304 
7 7050 6920 
8 880 1253 
9 1568 7032 
10 9434 8387 
11 1755 2598 
12 1670 8148 
13 3630 5327 
14 7063 6625 
15 1227 9772 
16 6821 2334 
17 7053 4652 
18 857 9861 
19 9569 1572 
20 9320 980 
21 7231 1302 
22 7278 7476 
23 2759 7011 
24 8604 3748 
25 1350 2888 
26 7632 3265 
27 8025 5709 
28 8485 8207 
29 5552 4250 
30 4980 9422 
EOF
